Rh 
 1.0000000000000000
     2.6870057685088806    0.0000000000000000    0.0000000000000000
     1.3435028842544403    2.3270152556440187    0.0000000000000000
     0.0000000000000000    0.0000000000000000   33.1635861375234597
 Rh 
   7
Cartesian
  0.0000000000000000  0.0000000000000000 10.0000000000000000
  1.3435028842544403  0.7756717518813395 12.1939310229205784
  0.0000000000000000  1.5513435037626790 14.3878620458411568
  0.0000000000000000  0.0000000000000000 16.5817930687617334
  1.3435028842544403  0.7756717518813395 18.7757240916823136
  0.0000000000000000  1.5513435037626790 20.9696551146028902
  0.0000000000000000  0.0000000000000000 23.1635861375234668
