Co_111_2x2_3L                           
   9.4731000000000005     
     0.8114884900000000   -0.4156386000000000    0.0000000000000000
     0.0000000000000000    1.0000000000000000    0.0000000000000000
     0.0000000000000000    0.0000000000000000    2.2748519500000000
   Co
    48
Direct
  0.4956929714002461  0.1363401042164148  0.3531596205149996
  0.4865922340115048  0.6322057809186128  0.3577524851060352
  0.2571711795549818  0.1671763870679805  0.4013431620198778
  0.2468697516070071  0.6676761272031866  0.4019055617406966
  0.0246422680431648  0.2117322726336034  0.4595303460980383
  0.0218579662274010  0.7106287566038172  0.4606126339090715
  0.9996098283519190  0.1318985083816137  0.3567754167261349
  0.9781021622626932  0.6277478444024738  0.3547172476191018
  0.7541908747449491  0.1705978623454265  0.4020461453877600
  0.7481780333049401  0.6680718067426603  0.4042934524677407
  0.5219028287808969  0.2100298117061544  0.4592257592931714
  0.5208932843190657  0.7110299542938395  0.4611126129771385
  0.2954951099570362  0.2564280586645786  0.5145654620421555
  0.2912921616205669  0.7533787646022378  0.5144758528731928
  0.0688796944111112  0.3002789898760994  0.5741461402437823
  0.0672054429443603  0.8019439233933645  0.5735168324349753
  0.7964185119143932  0.2541387859907692  0.5144056271191625
  0.7938268769338678  0.7558440354408013  0.5135589702146831
  0.5718151305874567  0.2997423959031305  0.5684688009046873
  0.5661340949150602  0.7982689652962057  0.5745150141795493
  0.3393251003158215  0.3420387580145014  0.6239784330950326
  0.3404516067133284  0.8442213134149871  0.6204146137659856
  0.8307573008565601  0.3388302486080002  0.6242423192613300
  0.8414699570461883  0.8396383261900634  0.6206921532736949
  0.0295048996841811  0.3956212419855039  0.3760215669049674
  0.0283783932866743  0.8934386865850182  0.3795853862340143
  0.5380726991434426  0.3988297513920052  0.3757576807386701
  0.5273600429538143  0.8980216738099419  0.3793078467263051
  0.2999503055888914  0.4373810101238989  0.4258538597562178
  0.3016245570556423  0.9357160766066337  0.4264831675650247
  0.0733348900429594  0.4812319413354196  0.4854345379578445
  0.0775378383794287  0.9842812353977604  0.4855241471268072
  0.7970148694125460  0.4379176040968677  0.4315311990953126
  0.8026959050849425  0.9393910347037925  0.4254849858204577
  0.5724114880856024  0.4835212140092290  0.4855943728808376
  0.3469720337726017  0.0270312433961881  0.5393873660909285
  0.5750031230661278  0.9818159645591970  0.4864410297853168
  0.3441877319568378  0.5259277273664019  0.5404696539019617
  0.1219602483929884  0.0699838727968116  0.5980944382593035
  0.1116588204450137  0.5704836129320178  0.5986568379801293
  0.8479367156809370  0.0266300457061658  0.5388873870228615
  0.8469271712191058  0.5276301882938510  0.5407742407068287
  0.6206519666950554  0.0695881932573379  0.5957065475322592
  0.6146391252550465  0.5670621376545787  0.5979538546122400
  0.3907278377373024  0.1099121555975245  0.6452827523808983
  0.3692201716480765  0.6057614916183846  0.6432245832738651
  0.8822377659884907  0.1054542190813854  0.6422475148939647
  0.8731370285997494  0.6013198957835763  0.6468403794850004
