VASP POSCAR
   1.00000000000000
     7.4640000000000004    0.0000000000000000    0.0000000000000000
     3.7320000000000002    6.4638200000000001    0.0000000000000000
     0.0000000000000000    0.0000000000000000   27.1883699999999990
   Co   C
    63     2
Direct
 -0.0019065707333172 -0.0009052291803806  0.2772613525586876
 -0.0075113757640663  0.3369015795435990  0.2739130496658518
  0.9979975960940116  0.6694880401783823  0.2772770111726161
  0.3356212185049706 -0.0059380272658770  0.2738344276422863
  0.3361169063548440  0.3370859857628021  0.2739311550775652
  0.3325377894482326  0.6671273219230668  0.2777062393274727
  0.6685355086277882  0.9989731453429808  0.2772885096258484
  0.6660405138548061  0.3335522762657525  0.2777139507538946
  0.6659647139883215  0.6671275509401295  0.2777424933182671
  0.1101577434964281  0.1110632964786697  0.3490763737206837
  0.1101002791862484  0.4454690429247543  0.3490783415994935
  0.1100170826715487  0.7783326859036293  0.3501437543868395
  0.4445025919347972  0.1110354304378850  0.3490790194901252
  0.4442752891207244  0.4452124667261126  0.3504060385177346
  0.4442011602441915  0.7775640828994435  0.3504193336628046
  0.7774210309436625  0.1109960992761982  0.3501566416937438
  0.7765687805911191  0.4451697497646855  0.3504504223102755
  0.7773985308301494  0.7782371153799196  0.3501871407104987
  0.2219950620956611  0.2224143201936371  0.4251488255885061
  0.2216628819876281  0.5556177999595359  0.4254532543960716
  0.2214670321859883  0.8895543736902096  0.4255247941228535
  0.5551754812740372  0.2221030387428324  0.4254559885832016
  0.5551238171441011  0.5557103814441661  0.4248558140390690
  0.5550697837900798  0.8896473969625431  0.4254834202784692
  0.8891551736928183  0.2218902149718410  0.4255308556295428
  0.8892485544475508  0.5554930851825176  0.4254858254646585
  0.8886528327720413  0.8890774388091226  0.4257860726095878
 -0.0000262379160009  0.0001243479667060  0.5000176987439403
  0.0000276185709946  0.3333872357135310  0.4999284066001411
  0.0001877326651201  0.6664914037286922  0.5000603612473912
  0.3332368650767032  0.0001633778077116  0.4999232551774554
  0.3332517007577191  0.3334048736852973  0.5000501919627526
  0.3332068179575139  0.6666810475633972  0.5001698311920556
  0.6663635960325388  0.0003236053590236  0.5000498969043351
  0.6665066301939999  0.3334073835682121  0.5001687780985128
  0.6665537041509704  0.6666960559099218  0.5000826147536847
  0.1112092169832362  0.1112490386743521  0.5752459699953836
  0.1112317265121788  0.4447940710541327  0.5746459684860307
  0.1113065305768677  0.7773143939743292  0.5746085208133136
  0.4447632647970972  0.1112633039356242  0.5746392375357366
  0.4444198471826212  0.4444809701019319  0.5749404967099738
  0.4449100637945513  0.7773879441094251  0.5745733538687613
  0.7772621610807918  0.1113602871957925  0.5746050302476450
  0.7773387787990029  0.4449647077893057  0.5745723949071868
  0.7777798182281865  0.7778378359426111  0.5743338648434515
  0.2218956205485846  0.2219706438151059  0.6496883207822416
  0.2216489723087224  0.5561463641178752  0.6510031185958549
  0.2218833261096090  0.8897321194664407  0.6496480368541058
  0.5560639246735065  0.2217392717738862  0.6509999923441859
  0.5560255925052294  0.5561050503360837  0.6509890135196593
  0.5561077099911488  0.8888789140479418  0.6499596174562855
  0.8896445206797442  0.2219687384971777  0.6496458479313867
  0.8888008068429524  0.5561883815521930  0.6499589744846116
  0.8888241383991180  0.8889100103439422  0.6499276039985808
  0.0000687023355795  0.0001820489302162  0.7223925307000796
  0.0001181964227117  0.3336095651899479  0.7223980740643333
 -0.0023573161726582  0.6682073212380667  0.7228308836161700
  0.3335249196125470  0.0002142476072482  0.7224019604852446
  0.3301017012407376  0.3301804676978137  0.7261575125331465
  0.3303485240461467  0.6734559696842872  0.7262007175668098
  0.6681164641101769 -0.0022624617922055  0.7228345021619291
  0.6733216145961495  0.3304553584145809  0.7262083588580269
  0.6680327632896992  0.6681128675547183  0.7228342829842554
  0.4442600317464581  0.4444082990715102  0.7632255337483168
  0.2213905424853854  0.2234042751150355  0.2368691392803828

  0.00000000E+00  0.00000000E+00  0.00000000E+00
  0.00000000E+00  0.00000000E+00  0.00000000E+00
  0.00000000E+00  0.00000000E+00  0.00000000E+00
  0.00000000E+00  0.00000000E+00  0.00000000E+00
  0.00000000E+00  0.00000000E+00  0.00000000E+00
  0.00000000E+00  0.00000000E+00  0.00000000E+00
  0.00000000E+00  0.00000000E+00  0.00000000E+00
  0.00000000E+00  0.00000000E+00  0.00000000E+00
  0.00000000E+00  0.00000000E+00  0.00000000E+00
  0.00000000E+00  0.00000000E+00  0.00000000E+00
  0.00000000E+00  0.00000000E+00  0.00000000E+00
  0.00000000E+00  0.00000000E+00  0.00000000E+00
  0.00000000E+00  0.00000000E+00  0.00000000E+00
  0.00000000E+00  0.00000000E+00  0.00000000E+00
  0.00000000E+00  0.00000000E+00  0.00000000E+00
  0.00000000E+00  0.00000000E+00  0.00000000E+00
  0.00000000E+00  0.00000000E+00  0.00000000E+00
  0.00000000E+00  0.00000000E+00  0.00000000E+00
  0.00000000E+00  0.00000000E+00  0.00000000E+00
  0.00000000E+00  0.00000000E+00  0.00000000E+00
  0.00000000E+00  0.00000000E+00  0.00000000E+00
  0.00000000E+00  0.00000000E+00  0.00000000E+00
  0.00000000E+00  0.00000000E+00  0.00000000E+00
  0.00000000E+00  0.00000000E+00  0.00000000E+00
  0.00000000E+00  0.00000000E+00  0.00000000E+00
  0.00000000E+00  0.00000000E+00  0.00000000E+00
  0.00000000E+00  0.00000000E+00  0.00000000E+00
  0.00000000E+00  0.00000000E+00  0.00000000E+00
  0.00000000E+00  0.00000000E+00  0.00000000E+00
  0.00000000E+00  0.00000000E+00  0.00000000E+00
  0.00000000E+00  0.00000000E+00  0.00000000E+00
  0.00000000E+00  0.00000000E+00  0.00000000E+00
  0.00000000E+00  0.00000000E+00  0.00000000E+00
  0.00000000E+00  0.00000000E+00  0.00000000E+00
  0.00000000E+00  0.00000000E+00  0.00000000E+00
  0.00000000E+00  0.00000000E+00  0.00000000E+00
  0.00000000E+00  0.00000000E+00  0.00000000E+00
  0.00000000E+00  0.00000000E+00  0.00000000E+00
  0.00000000E+00  0.00000000E+00  0.00000000E+00
  0.00000000E+00  0.00000000E+00  0.00000000E+00
  0.00000000E+00  0.00000000E+00  0.00000000E+00
  0.00000000E+00  0.00000000E+00  0.00000000E+00
  0.00000000E+00  0.00000000E+00  0.00000000E+00
  0.00000000E+00  0.00000000E+00  0.00000000E+00
  0.00000000E+00  0.00000000E+00  0.00000000E+00
  0.00000000E+00  0.00000000E+00  0.00000000E+00
  0.00000000E+00  0.00000000E+00  0.00000000E+00
  0.00000000E+00  0.00000000E+00  0.00000000E+00
  0.00000000E+00  0.00000000E+00  0.00000000E+00
  0.00000000E+00  0.00000000E+00  0.00000000E+00
  0.00000000E+00  0.00000000E+00  0.00000000E+00
  0.00000000E+00  0.00000000E+00  0.00000000E+00
  0.00000000E+00  0.00000000E+00  0.00000000E+00
  0.00000000E+00  0.00000000E+00  0.00000000E+00
  0.00000000E+00  0.00000000E+00  0.00000000E+00
  0.00000000E+00  0.00000000E+00  0.00000000E+00
  0.00000000E+00  0.00000000E+00  0.00000000E+00
  0.00000000E+00  0.00000000E+00  0.00000000E+00
  0.00000000E+00  0.00000000E+00  0.00000000E+00
  0.00000000E+00  0.00000000E+00  0.00000000E+00
  0.00000000E+00  0.00000000E+00  0.00000000E+00
  0.00000000E+00  0.00000000E+00  0.00000000E+00
  0.00000000E+00  0.00000000E+00  0.00000000E+00
  0.00000000E+00  0.00000000E+00  0.00000000E+00
  0.00000000E+00  0.00000000E+00  0.00000000E+00

